NAME                LECTURE2PROB
ROWS
 N  COST
 L  C1
 L  C2
 L  C3
COLUMNS
    X1              COST            20       C1            -3.5
    X1              C2              -4       C3              -3
    X2              COST            15       C1              -3
    X2              C2              -2       C3              -4
RHS
    rhs             C1             -19       C2             -15
    rhs             C3             -20
BOUNDS
 LI BOUND            X1              0
 LI BOUND            X2              0
ENDATA